15
6
0 0 0 0 0 0 0 0 1 0 0 0 0 0 0 
0 0 0 0 0 0 0 0 0 1 0 0 1 0 0
0 0 0 0 0 0 0 0 0 0 1 0 0 0 0
0 0 0 0 0 0 0 0 0 0 0 0 0 1 0
0 0 0 0 0 0 0 0 0 1 1 0 0 0 0
0 0 0 0 0 0 0 0 0 0 1 0 0 0 1
10
0 78 86 93 120 12
165 0 193 213 178 12
214 170 0 190 185 12
178 177 185 0 196 12
201 199 215 190 0 12
201 100 88 190 14 0
